
Gurobi 9.1.2 (linux64, gurobi_cl) logging started Fri Jul 30 13:53:53 2021

Using license file /opt/gurobi/gurobi.lic
Set parameter TimeLimit to value 600
Set parameter Cuts to value 0
Set parameter LogFile to value 912-Cuts0-glass4-1.log
Set parameter Seed to value 1

Gurobi Optimizer version 9.1.2 build v9.1.2rc0 (linux64)
Copyright (c) 2021, Gurobi Optimization, LLC

Read MPS format model from file /nfs/models/mip/glass4.mps.bz2
Reading time = 0.01 seconds
glass4: 396 rows, 322 columns, 1815 nonzeros
Thread count: 4 physical cores, 8 logical processors, using up to 8 threads
Optimize a model with 396 rows, 322 columns and 1815 nonzeros
Model fingerprint: 0x0a9d9037
Variable types: 20 continuous, 302 integer (0 binary)
Coefficient statistics:
  Matrix range     [1e+00, 8e+06]
  Objective range  [1e+00, 1e+06]
  Bounds range     [1e+00, 8e+02]
  RHS range        [1e+00, 8e+06]
Presolve removed 6 rows and 6 columns
Presolve time: 0.00s
Presolved: 390 rows, 316 columns, 1803 nonzeros
Variable types: 19 continuous, 297 integer (297 binary)
Found heuristic solution: objective 3.133356e+09

Root relaxation: objective 8.000024e+08, 72 iterations, 0.00 seconds

    Nodes    |    Current Node    |     Objective Bounds      |     Work
 Expl Unexpl |  Obj  Depth IntInf | Incumbent    BestBd   Gap | It/Node Time

     0     0 8.0000e+08    0   72 3.1334e+09 8.0000e+08  74.5%     -    0s
H    0     0                    2.250018e+09 8.0000e+08  64.4%     -    0s
H    0     0                    2.150017e+09 8.0000e+08  62.8%     -    0s
     0     0 8.0000e+08    0   72 2.1500e+09 8.0000e+08  62.8%     -    0s
H    0     0                    2.000017e+09 8.0000e+08  60.0%     -    0s
     0     2 8.0000e+08    0   72 2.0000e+09 8.0000e+08  60.0%     -    0s
H   78   171                    1.913350e+09 8.0000e+08  58.2%   2.3    0s
H  188   583                    1.900016e+09 8.0000e+08  57.9%   2.1    0s
H  297   583                    1.900016e+09 8.0000e+08  57.9%   2.2    0s
H  607  1194                    1.800016e+09 8.0000e+08  55.6%   2.4    0s
H 1702  1582                    1.788904e+09 8.0000e+08  55.3%   2.7    0s
H 2007  1552                    1.750015e+09 8.0000e+08  54.3%   2.7    0s
H 2170  1598                    1.700014e+09 8.0000e+08  52.9%   2.7    0s
H 2380  1659                    1.700014e+09 8.0000e+08  52.9%   2.8    0s
H 9970  4846                    1.641680e+09 8.0000e+08  51.3%   3.4    0s
*19642 12181              74    1.637515e+09 8.0000e+08  51.1%   4.1    2s
*19643 12181              74    1.637515e+09 8.0000e+08  51.1%   4.1    2s
H22848 12247                    1.600015e+09 8.0000e+08  50.0%   4.2    2s
 69928 36812 9.0001e+08   49   46 1.6000e+09 8.5001e+08  46.9%   3.9    5s
*89871 46482              62    1.600014e+09 9.0000e+08  43.8%   3.8    5s
*137482 75911              84    1.600014e+09 9.0000e+08  43.8%   3.8    7s
*137485 75908              85    1.600014e+09 9.0000e+08  43.8%   3.8    7s
 212330 115310 infeasible   82      1.6000e+09 9.0000e+08  43.8%   3.7   10s
*231296 126066              91    1.600014e+09 9.0000e+08  43.8%   3.7   10s
*245470 122100              79    1.566680e+09 9.0000e+08  42.6%   3.7   11s
*267179 124392              88    1.500014e+09 9.0001e+08  40.0%   3.7   11s
*285302 132327              64    1.500013e+09 9.0001e+08  40.0%   3.7   12s
*301528 142919              69    1.500013e+09 9.0001e+08  40.0%   3.7   13s
H315311 148383                    1.500012e+09 9.0001e+08  40.0%   3.7   14s
H319708 121092                    1.450012e+09 9.0001e+08  37.9%   3.7   14s
 331559 127128 1.0500e+09   44   36 1.4500e+09 9.0001e+08  37.9%   3.8   15s
*348459 131962              64    1.450012e+09 9.0001e+08  37.9%   3.8   15s
*374082 130520              67    1.400013e+09 9.0001e+08  35.7%   3.8   16s
*411869 135298              58    1.400013e+09 9.0001e+08  35.7%   3.9   18s
 433462 137191 9.3334e+08   46   44 1.4000e+09 9.2501e+08  33.9%   4.0   20s
 538321 150334 1.3938e+09   64   27 1.4000e+09 1.0000e+09  28.6%   4.0   25s
 634198 153200 1.1000e+09   39   26 1.4000e+09 1.1000e+09  21.4%   4.1   30s
 747949 177342 infeasible   40      1.4000e+09 1.1000e+09  21.4%   4.1   35s
H791555 72498                    1.266680e+09 1.1000e+09  13.2%   4.1   37s
H794184 56084                    1.200013e+09 1.1000e+09  8.33%   4.1   37s

Explored 794893 nodes (3268223 simplex iterations) in 38.24 seconds
Thread count was 8 (of 8 available processors)

Solution count 10: 1.20001e+09 1.26668e+09 1.40001e+09 ... 1.50001e+09

Optimal solution found (tolerance 1.00e-04)
Best objective 1.200012600000e+09, best bound 1.200012600000e+09, gap 0.0000%
